NAME : random_16
COMMENT : 40 random nodes
TYPE : TSP
DIMENSION : 40
EDGE_WEIGHT_TYPE : EUC_2D
NODE_COORD_SECTION
1 87 691
2 116 52
3 503 216
4 986 276
5 67 59
6 2 160
7 725 219
8 981 651
9 187 685
10 27 172
11 342 672
12 961 428
13 736 274
14 300 162
15 361 414
16 172 525
17 159 763
18 845 346
19 882 980
20 766 477
21 243 622
22 222 163
23 615 775
24 647 444
25 859 131
26 719 490
27 804 663
28 444 734
29 919 414
30 181 744
31 106 419
32 863 73
33 477 876
34 843 765
35 454 184
36 697 827
37 792 95
38 940 982
39 171 420
40 519 503
EOF